26858 15735 10335 8716 8288 8075 7891 7690 7803 7659 7643 7651 7595 7835 7680 7576 7893 7680 7619 7844 7680 7680 7680 7680 7785 7680 7680 7680 7680 7680 7680 7680 7680 7680 7680 7680 7680 7680 7680 7680 7680 7680 7680 7680 7680 7680 7680 7680 7680 7680 7680 7680 7680 7658 7680 7680 7680 7680 7680 7680 7680 7680 7680 7680 7680 7680 7680 7680 7680 7680 7680 7680 7680 7680 7680 7680 7680 7680 7680 7680 7680 7680 7680 7680 7680 7666 7680 7680 7680 7680 7680 7680 7680 7680 7680 7680 7680 7680 7680 7680 7680 7680 7680 7680 7680 7680 7680 7680 7680 7680 7680 7680 7658 7680 7680 7680 7680 7680 7680 7680 7680 7680 7680 7680 7680 7680 7680 7680 7680 7680 7680 7680 7625 7680 7680 7680 7680 7683 7680 7680 7680 7680 7680 7680 7680 7680 7680 7680 7680 7680 7680 7680 7683 7680 7680 7680 7680 7680 7680 7680 7680 7683 7683 7683 7683 7683 7683 7683 7683 7683 7683 7683 7683 7683 7683 7683 7683 7683 7683 7683 7683 7683 7683 7683 7683 7683 7683 7683 7683 7683 7683 7683 7683 7683 7683 7683 7683 7683 7683 7683 7683 7680 7683 7683 7683 7683 7683 7683 7683 7683 7683 7683 7683 7683 7683 7683 7683 7683 7683 7683 7683 7683 7714 7683 7683 7683 7683 7683 7683 7683 7683 7683 7683 7683 7683 7683 7683 7683 7683 7683 7683 7683 7683 7683 7683 7683 7683 7683 7683 7683 7683 7683 7683 7683 7683 7683 7683 7683 7683 7683 7683 7683 7683 7683 7792 7683 7683 7683 7683 7683 7683 7683 7683 7683 7683 7683 7683 7683 7683 7683 7683 7683 7683 7683 7683 7683 7683 7683 7683 7683 7683 7683 7683 7683 7683 7683 7683 7683 7683 7683 7683 7683 7683 7683 7683 7683 7683 7683 7683 7683 7683 7683 7683 7683 7683 7683 7683 7683 7683 7683 7683 7683 7683 7683 7740 7683 7728 7683 7683 7683 7683 7683 7683 7683 7683 7683 7683 7785 7683 7683 7683 7683 7683 7683 7683 7683 7683 7683 7683 7683 7683 7683 7683 7683 7683 7683 7683 7776 7683 7683 7683 7683 7683 7683 7683 7683 7683 7683 7683 7776 7683 7683 7683 7683 7683 7683 7683 7683 7683 7683 7683 7683 7683 7683 7683 7683 7683 7683 7683 7683 7683 7785 7683 7683 7683 7683 7683 7683 7683 7683 7683 7683 7683 7683 7683 7683 7683 7683 7683 7683 7683 7683 7683 7683 7683 7683 7683 7683 7683 7683 7683 7683 7683 7683 7683 7683 7683 7683 7683 7683 7683 7683 7683 7683 7683 7683 7683 7683 7683 7683 7683 7683 7683 7683 7683 7683 7683 7683 7683 7683 7683 7683 7683 7683 7683 7683 7683 7785 7683 7683 7683 7683 7776 7683 7683 7683 7683 7683 7683 7683 7683 7683 7683 7683 7683 7683 7683 7683 7683 7683 7683 7683 7785 7683 7683 7683 7683 7683 7683 7683 7785 7683 7683 7683 7683 7776 7683 7683 7683 7683 7683 7683 7683 7683 7683 7683 7683 7854 7683 7683 7683 7683 7854 7683 7683 7683 7683 7683 7683 7683 7683 7683 7683 7683 7683 7683 7683 7683 7683 7683 7683 7683 7683 7799 7683 7683 7683 7683 7683 7683 7683 7683 7683 7683 7683 7683 7683 7683 7683 7683 7683 7683 7683 7683 7683 7683 7683 7683 7683 7683 7683 7683 7683 7683 7683 7683 7683 7683 7683 7683 7683 7683 7683 7683 7683 7683 7683 7683 7683 7683 7683 7683 7683 7683 7683 7683 7683 7683 7683 7683 7683 7683 7683 7683 7683 7683 7683 7683 7683 7683 7683 7683 7683 7683 7683 7683 7683 7683 7683 7683 7683 7683 7683 7683 7683 7683 7683 7683 7683 7683 7683 7683 7683 7683 7683 7683 7683 7683 7683 7735 7683 7683 7683 7683 7683 7683 7683 7683 7683 7683 7683 7683 7683 7683 7683 7683 7683 7683 7683 7683 7683 7683 7683 7683 7683 7683 7683 7683 7683 7683 7659 7683 7683 7683 7683 7683 7683 7683 7683 7683 7683 7683 7683 7683 7683 7683 7683 7683 7683 7683 7683 7683 7683 7776 7683 7683 7683 7683 7683 7683 7683 7683 7683 7683 7683 7683 7683 7683 7683 7683 7683 7683 7683 7683 7683 7683 7683 7683 7785 7683 7683 7683 7683 7683 7683 7683 7683 7683 7683 7683 7683 7683 7683 7683 7683 7683 7683 7683 7683 7683 7785 7683 7683 7683 7683 7683 7683 7683 7683 7683 7683 7683 7683 7683 7683 7683 7683 7683 7683 7683 7683 7683 7683 7683 7683 7683 7683 7683 7683 7683 7683 7683 7679 7683 7683 7683 7683 7683 7683 7683 7683 7683 7683 7683 7683 7683 7683 7679 7683 7683 7683 7683 7683 7683 7683 7679 7683 7683 7683 7683 7689 7679 7689 7679 7691 7679 7679 7679 7689 7679 7679 7679 7679 7679 7679 7679 7679 7679 7679 7679 7679 7679 7679 7679 7679 7689 7679 7679 7679 7679 7679 7679 7679 7679 7679 7679 7679 7679 7689 7679 7679 7679 7679 7679 7679 7679 7689 7679 7679 7679 7679 7679 7679 7679 7679 7679 7689 7679 7679 7679 7679 7679 7679 7679 7679 7679 7679 7679 7679 7679 7679 7679 7679 7679 7679 7679 7679 7679 7679 7679 7679 7679 7689 7691 7679 7679 7689 7679 7679 7679 7679 7679 7679 7679 7679 7679 7679 7689 7679 7679 7679 7679 7679 7679 7679 7679 7689 7679 7679 7679 7679 7679 7679 7679 7679 7679 7679 7679 7689 7679 7679 7679 7679 7679 7679 7679 7679 7679 7679 7679 7679 7679 7679 7679 7679 7679 7679 7679 7679 7679 7679 7679 7679 7679 7679 7679 7689 7679 7679 7679 7679 7679 7679 7679 7679 7689 7679 7679 7679 7679 7679 7679 7679 7679 7679 7679 7689 7679 7679 7679 7679 7689 7679 7679 7679 7679 7679 7679 7679 7689 7679 7679 7679 7679 7679 7679 7689 7679 7679 7679 7679 7679 7679 7679 7679 7679 7679 7679 7679 7679 7679 7679 7694 7679 7679 7679 7679 7679 7679 7679 